300
125 125
1 100 912
2 100 330
3 100 224
4 100 855
5 100 914
6 99 299
7 99 604
8 98 202
9 97 320
10 97 330
11 97 613
12 97 778
13 97 133
14 97 596
15 96 808
16 96 139
17 96 733
18 96 747
19 96 557
20 94 181
21 94 22
22 94 413
23 94 648
24 93 179
25 93 156
26 93 540
27 93 885
28 93 101
29 93 139
30 92 486
31 92 378
32 92 737
33 91 629
34 91 370
35 91 285
36 91 674
37 90 461
38 90 57
39 90 944
40 90 333
41 90 260
42 90 34
43 90 461
44 89 918
45 89 19
46 89 203
47 89 208
48 89 354
49 89 621
50 89 560
51 88 960
52 88 192
53 88 545
54 87 423
55 87 69
56 87 908
57 86 861
58 86 898
59 86 222
60 85 226
61 84 820
62 83 9
63 82 800
64 82 420
65 81 605
66 81 581
67 81 999
68 81 246
69 81 446
70 81 714
71 80 238
72 80 431
73 80 477
74 80 911
75 78 760
76 78 10
77 78 276
78 78 68
79 78 740
80 78 654
81 78 426
82 77 693
83 77 7
84 77 334
85 77 217
86 76 585
87 76 647
88 76 696
89 75 11
90 75 909
91 75 751
92 73 327
93 73 330
94 73 471
95 73 751
96 73 453
97 73 180
98 73 980
99 72 619
100 71 346
101 71 301
102 70 687
103 70 807
104 70 770
105 70 737
106 70 978
107 69 784
108 69 413
109 68 570
110 68 759
111 67 749
112 66 254
113 66 881
114 66 397
115 66 86
116 65 574
117 65 161
118 65 31
119 64 822
120 64 799
121 64 443
122 64 160
123 63 665
124 63 345
125 63 855
126 62 554
127 62 806
128 62 597
129 62 911
130 62 955
131 61 779
132 61 787
133 61 635
134 61 296
135 61 19
136 61 923
137 60 81
138 60 883
139 60 906
140 59 963
141 59 821
142 59 920
143 57 940
144 56 642
145 56 322
146 55 600
147 55 970
148 54 155
149 54 205
150 54 486
151 53 926
152 53 169
153 53 885
154 52 648
155 52 920
156 52 11
157 52 154
158 51 926
159 50 847
160 49 455
161 49 688
162 49 434
163 49 286
164 48 321
165 48 36
166 48 547
167 47 954
168 47 675
169 47 644
170 47 457
171 47 20
172 47 111
173 47 88
174 46 405
175 46 347
176 46 944
177 46 355
178 46 442
179 45 35
180 45 189
181 45 871
182 45 966
183 44 968
184 43 647
185 43 554
186 42 462
187 41 758
188 41 983
189 41 719
190 41 331
191 41 522
192 40 90
193 40 355
194 40 354
195 40 890
196 39 394
197 39 527
198 39 225
199 39 62
200 39 914
201 39 206
202 39 308
203 39 410
204 38 749
205 38 228
206 38 991
207 38 209
208 38 785
209 37 9
210 37 303
211 37 150
212 36 868
213 36 215
214 36 909
215 35 64
216 35 910
217 35 243
218 35 554
219 35 156
220 34 704
221 33 734
222 33 381
223 33 189
224 33 577
225 33 916
226 33 38
227 32 27
228 32 366
229 32 648
230 32 18
231 31 797
232 31 174
233 31 909
234 30 908
235 30 938
236 30 305
237 29 990
238 29 147
239 28 679
240 28 647
241 26 868
242 25 621
243 25 460
244 25 512
245 24 844
246 24 114
247 24 307
248 24 625
249 23 546
250 23 520
251 22 901
252 22 854
253 22 625
254 22 240
255 22 907
256 22 371
257 21 738
258 21 371
259 21 23
260 21 198
261 21 109
262 21 747
263 20 222
264 20 997
265 20 230
266 20 616
267 19 50
268 19 10
269 19 892
270 19 366
271 19 740
272 18 691
273 17 114
274 17 313
275 17 601
276 17 632
277 16 854
278 16 317
279 16 962
280 16 726
281 16 368
282 16 294
283 16 868
284 16 333
285 15 341
286 15 317
287 15 144
288 14 334
289 14 230
290 14 168
291 13 209
292 13 383
293 13 489
294 13 842
295 13 662
296 12 275
297 12 759
298 12 292
299 12 344
300 12 732
